10J3M/DAT/10J3MUTL-4.dat
10 3
13.2807 13.2807
44.6493 44.6493
11.304 11.304
2.6641 2.6641
17.4283 17.4283
1.7487 1.7487
26.8169 26.8169
17.473 17.473
21.9629 21.9629
40.2396 40.2396
49.3919