10J3M/SOL/10J3MUTL-4.sol
solution status: optimal solution found
objective value:                              75.0737
x#1#2                                               1 	(obj:0)
x#3#1                               0.272792387768564 	(obj:0)
x#3#2                               0.727207612231436 	(obj:0)
x#4#1                               0.234384149362641 	(obj:0)
x#4#3                               0.765615850637359 	(obj:0)
x#5#1                                               1 	(obj:0)
x#6#3                                               1 	(obj:0)
x#7#2                                               1 	(obj:0)
x#8#1                                               1 	(obj:0)
x#9#3                               0.296320373681011 	(obj:0)
x#10#1                                              1 	(obj:0)
z                                             75.0737 	(obj:1)
